Route #1: 95 60 14 16 51 91 118
Route #2: 47 9 2 39 73 18 96 59
Route #3: 58 34 41 105 25 113 89 116 129
Route #4: 13 63 15 81 84 107 70 4 27 22 55 126 20 67 44 8 30 68 7 121 5 97 6 108
Route #5: 100 122 11 114 131 101 52 40
Route #6: 24 37 88 102 94 93 42 65 28 75 98 23 77 53 66 90
Route #7: 31 92 1 69 49 117 64 48 127
Route #8: 112 79 43 36 111 120 71 61 29
Route #9: 119 57 104 99 46 21 45 106 85
Route #10: 128 125 115 80 130 19 17 109 132
Route #11: 3 72 86 33 124 12 133 82 76
Route #12: 78 87 74 26 35 50 38 83
Route #13: 56 123 110 54 32 62 10 103
